DATASET = "thpack2";
INSTANCE = "060";

WIDTH = 233;
HEIGHT = 220;
LENGTH = 587;

NO_OF_SHAPES = 5;
size = [|
  78,72,58 |
  107,57,57 |
  72,64,37 |
  93,66,26 |
  116,67,35 |
|];

verticality = [|
  1,1,1 |
  1,1,1 |
  1,1,1 |
  0,0,1 |
  0,1,1 |
|];

box_count = [
  23,
  30,
  20,
  20,
  20,
];
